db/data/30249679431575155136281455265334144.z3.out
sat
-------------------
1236.527124727
